experiments/solver/benchmarks/factorize-77.cnf
c Factorization SAT: find a,b > 1 such that a * b = 77
c Variable a[i] = i+1 (i=0..7), b[i] = 8+i+1 (i=0..7)
c SATISFIABLE iff 77 is composite
c SAT Competition 2026 — Experimental Track — LLM-Guided SAT Solver
c Label: 7×11  Difficulty: easy
p cnf 336 1082
-1 -9 17 0
1 -17 0
9 -17 0
-1 -10 18 0
1 -18 0
10 -18 0
-1 -11 19 0
1 -19 0
11 -19 0
-1 -12 20 0
1 -20 0
12 -20 0
-1 -13 21 0
1 -21 0
13 -21 0
-1 -14 22 0
1 -22 0
14 -22 0
-1 -15 23 0
1 -23 0
15 -23 0
-1 -16 24 0
1 -24 0
16 -24 0
-2 -9 25 0
2 -25 0
9 -25 0
-2 -10 26 0
2 -26 0
10 -26 0
-2 -11 27 0
2 -27 0
11 -27 0
-2 -12 28 0
2 -28 0
12 -28 0
-2 -13 29 0
2 -29 0
13 -29 0
-2 -14 30 0
2 -30 0
14 -30 0
-2 -15 31 0
2 -31 0
15 -31 0
-2 -16 32 0
2 -32 0
16 -32 0
-3 -9 33 0
3 -33 0
9 -33 0
-3 -10 34 0
3 -34 0
10 -34 0
-3 -11 35 0
3 -35 0
11 -35 0
-3 -12 36 0
3 -36 0
12 -36 0
-3 -13 37 0
3 -37 0
13 -37 0
-3 -14 38 0
3 -38 0
14 -38 0
-3 -15 39 0
3 -39 0
15 -39 0
-3 -16 40 0
3 -40 0
16 -40 0
-4 -9 41 0
4 -41 0
9 -41 0
-4 -10 42 0
4 -42 0
10 -42 0
-4 -11 43 0
4 -43 0
11 -43 0
-4 -12 44 0
4 -44 0
12 -44 0
-4 -13 45 0
4 -45 0
13 -45 0
-4 -14 46 0
4 -46 0
14 -46 0
-4 -15 47 0
4 -47 0
15 -47 0
-4 -16 48 0
4 -48 0
16 -48 0
-5 -9 49 0
5 -49 0
9 -49 0
-5 -10 50 0
5 -50 0
10 -50 0
-5 -11 51 0
5 -51 0
11 -51 0
-5 -12 52 0
5 -52 0
12 -52 0
-5 -13 53 0
5 -53 0
13 -53 0
-5 -14 54 0
5 -54 0
14 -54 0
-5 -15 55 0
5 -55 0
15 -55 0
-5 -16 56 0
5 -56 0
16 -56 0
-6 -9 57 0
6 -57 0
9 -57 0
-6 -10 58 0
6 -58 0
10 -58 0
-6 -11 59 0
6 -59 0
11 -59 0
-6 -12 60 0
6 -60 0
12 -60 0
-6 -13 61 0
6 -61 0
13 -61 0
-6 -14 62 0
6 -62 0
14 -62 0
-6 -15 63 0
6 -63 0
15 -63 0
-6 -16 64 0
6 -64 0
16 -64 0
-7 -9 65 0
7 -65 0
9 -65 0
-7 -10 66 0
7 -66 0
10 -66 0
-7 -11 67 0
7 -67 0
11 -67 0
-7 -12 68 0
7 -68 0
12 -68 0
-7 -13 69 0
7 -69 0
13 -69 0
-7 -14 70 0
7 -70 0
14 -70 0
-7 -15 71 0
7 -71 0
15 -71 0
-7 -16 72 0
7 -72 0
16 -72 0
-8 -9 73 0
8 -73 0
9 -73 0
-8 -10 74 0
8 -74 0
10 -74 0
-8 -11 75 0
8 -75 0
11 -75 0
-8 -12 76 0
8 -76 0
12 -76 0
-8 -13 77 0
8 -77 0
13 -77 0
-8 -14 78 0
8 -78 0
14 -78 0
-8 -15 79 0
8 -79 0
15 -79 0
-8 -16 80 0
8 -80 0
16 -80 0
-18 -25 -81 0
18 25 -81 0
18 -25 81 0
-18 25 81 0
-18 -25 82 0
18 -82 0
25 -82 0
-19 -26 -83 0
19 26 -83 0
19 -26 83 0
-19 26 83 0
-83 -33 -84 0
83 33 -84 0
83 -33 84 0
-83 33 84 0
-19 -26 85 0
19 -85 0
26 -85 0
-83 -33 86 0
83 -86 0
33 -86 0
85 86 -87 0
-85 87 0
-86 87 0
-82 -84 -88 0
82 84 -88 0
82 -84 88 0
-82 84 88 0
-82 -84 89 0
82 -89 0
84 -89 0
-20 -27 -90 0
20 27 -90 0
20 -27 90 0
-20 27 90 0
-90 -34 -91 0
90 34 -91 0
90 -34 91 0
-90 34 91 0
-20 -27 92 0
20 -92 0
27 -92 0
-90 -34 93 0
90 -93 0
34 -93 0
92 93 -94 0
-92 94 0
-93 94 0
-41 -87 -95 0
41 87 -95 0
41 -87 95 0
-41 87 95 0
-95 -89 -96 0
95 89 -96 0
95 -89 96 0
-95 89 96 0
-41 -87 97 0
41 -97 0
87 -97 0
-95 -89 98 0
95 -98 0
89 -98 0
97 98 -99 0
-97 99 0
-98 99 0
-91 -96 -100 0
91 96 -100 0
91 -96 100 0
-91 96 100 0
-91 -96 101 0
91 -101 0
96 -101 0
-21 -28 -102 0
21 28 -102 0
21 -28 102 0
-21 28 102 0
-102 -35 -103 0
102 35 -103 0
102 -35 103 0
-102 35 103 0
-21 -28 104 0
21 -104 0
28 -104 0
-102 -35 105 0
102 -105 0
35 -105 0
104 105 -106 0
-104 106 0
-105 106 0
-42 -49 -107 0
42 49 -107 0
42 -49 107 0
-42 49 107 0
-107 -94 -108 0
107 94 -108 0
107 -94 108 0
-107 94 108 0
-42 -49 109 0
42 -109 0
49 -109 0
-107 -94 110 0
107 -110 0
94 -110 0
109 110 -111 0
-109 111 0
-110 111 0
-99 -101 -112 0
99 101 -112 0
99 -101 112 0
-99 101 112 0
-112 -103 -113 0
112 103 -113 0
112 -103 113 0
-112 103 113 0
-99 -101 114 0
99 -114 0
101 -114 0
-112 -103 115 0
112 -115 0
103 -115 0
114 115 -116 0
-114 116 0
-115 116 0
-108 -113 -117 0
108 113 -117 0
108 -113 117 0
-108 113 117 0
-108 -113 118 0
108 -118 0
113 -118 0
-22 -29 -119 0
22 29 -119 0
22 -29 119 0
-22 29 119 0
-119 -36 -120 0
119 36 -120 0
119 -36 120 0
-119 36 120 0
-22 -29 121 0
22 -121 0
29 -121 0
-119 -36 122 0
119 -122 0
36 -122 0
121 122 -123 0
-121 123 0
-122 123 0
-43 -50 -124 0
43 50 -124 0
43 -50 124 0
-43 50 124 0
-124 -57 -125 0
124 57 -125 0
124 -57 125 0
-124 57 125 0
-43 -50 126 0
43 -126 0
50 -126 0
-124 -57 127 0
124 -127 0
57 -127 0
126 127 -128 0
-126 128 0
-127 128 0
-106 -111 -129 0
106 111 -129 0
106 -111 129 0
-106 111 129 0
-129 -116 -130 0
129 116 -130 0
129 -116 130 0
-129 116 130 0
-106 -111 131 0
106 -131 0
111 -131 0
-129 -116 132 0
129 -132 0
116 -132 0
131 132 -133 0
-131 133 0
-132 133 0
-118 -120 -134 0
118 120 -134 0
118 -120 134 0
-118 120 134 0
-134 -125 -135 0
134 125 -135 0
134 -125 135 0
-134 125 135 0
-118 -120 136 0
118 -136 0
120 -136 0
-134 -125 137 0
134 -137 0
125 -137 0
136 137 -138 0
-136 138 0
-137 138 0
-130 -135 -139 0
130 135 -139 0
130 -135 139 0
-130 135 139 0
-130 -135 140 0
130 -140 0
135 -140 0
-23 -30 -141 0
23 30 -141 0
23 -30 141 0
-23 30 141 0
-141 -37 -142 0
141 37 -142 0
141 -37 142 0
-141 37 142 0
-23 -30 143 0
23 -143 0
30 -143 0
-141 -37 144 0
141 -144 0
37 -144 0
143 144 -145 0
-143 145 0
-144 145 0
-44 -51 -146 0
44 51 -146 0
44 -51 146 0
-44 51 146 0
-146 -58 -147 0
146 58 -147 0
146 -58 147 0
-146 58 147 0
-44 -51 148 0
44 -148 0
51 -148 0
-146 -58 149 0
146 -149 0
58 -149 0
148 149 -150 0
-148 150 0
-149 150 0
-65 -123 -151 0
65 123 -151 0
65 -123 151 0
-65 123 151 0
-151 -128 -152 0
151 128 -152 0
151 -128 152 0
-151 128 152 0
-65 -123 153 0
65 -153 0
123 -153 0
-151 -128 154 0
151 -154 0
128 -154 0
153 154 -155 0
-153 155 0
-154 155 0
-133 -138 -156 0
133 138 -156 0
133 -138 156 0
-133 138 156 0
-156 -140 -157 0
156 140 -157 0
156 -140 157 0
-156 140 157 0
-133 -138 158 0
133 -158 0
138 -158 0
-156 -140 159 0
156 -159 0
140 -159 0
158 159 -160 0
-158 160 0
-159 160 0
-142 -147 -161 0
142 147 -161 0
142 -147 161 0
-142 147 161 0
-161 -152 -162 0
161 152 -162 0
161 -152 162 0
-161 152 162 0
-142 -147 163 0
142 -163 0
147 -163 0
-161 -152 164 0
161 -164 0
152 -164 0
163 164 -165 0
-163 165 0
-164 165 0
-157 -162 -166 0
157 162 -166 0
157 -162 166 0
-157 162 166 0
-157 -162 167 0
157 -167 0
162 -167 0
-24 -31 -168 0
24 31 -168 0
24 -31 168 0
-24 31 168 0
-168 -38 -169 0
168 38 -169 0
168 -38 169 0
-168 38 169 0
-24 -31 170 0
24 -170 0
31 -170 0
-168 -38 171 0
168 -171 0
38 -171 0
170 171 -172 0
-170 172 0
-171 172 0
-45 -52 -173 0
45 52 -173 0
45 -52 173 0
-45 52 173 0
-173 -59 -174 0
173 59 -174 0
173 -59 174 0
-173 59 174 0
-45 -52 175 0
45 -175 0
52 -175 0
-173 -59 176 0
173 -176 0
59 -176 0
175 176 -177 0
-175 177 0
-176 177 0
-66 -73 -178 0
66 73 -178 0
66 -73 178 0
-66 73 178 0
-178 -145 -179 0
178 145 -179 0
178 -145 179 0
-178 145 179 0
-66 -73 180 0
66 -180 0
73 -180 0
-178 -145 181 0
178 -181 0
145 -181 0
180 181 -182 0
-180 182 0
-181 182 0
-150 -155 -183 0
150 155 -183 0
150 -155 183 0
-150 155 183 0
-183 -160 -184 0
183 160 -184 0
183 -160 184 0
-183 160 184 0
-150 -155 185 0
150 -185 0
155 -185 0
-183 -160 186 0
183 -186 0
160 -186 0
185 186 -187 0
-185 187 0
-186 187 0
-165 -167 -188 0
165 167 -188 0
165 -167 188 0
-165 167 188 0
-188 -169 -189 0
188 169 -189 0
188 -169 189 0
-188 169 189 0
-165 -167 190 0
165 -190 0
167 -190 0
-188 -169 191 0
188 -191 0
169 -191 0
190 191 -192 0
-190 192 0
-191 192 0
-174 -179 -193 0
174 179 -193 0
174 -179 193 0
-174 179 193 0
-193 -184 -194 0
193 184 -194 0
193 -184 194 0
-193 184 194 0
-174 -179 195 0
174 -195 0
179 -195 0
-193 -184 196 0
193 -196 0
184 -196 0
195 196 -197 0
-195 197 0
-196 197 0
-189 -194 -198 0
189 194 -198 0
189 -194 198 0
-189 194 198 0
-189 -194 199 0
189 -199 0
194 -199 0
-32 -39 -200 0
32 39 -200 0
32 -39 200 0
-32 39 200 0
-200 -46 -201 0
200 46 -201 0
200 -46 201 0
-200 46 201 0
-32 -39 202 0
32 -202 0
39 -202 0
-200 -46 203 0
200 -203 0
46 -203 0
202 203 -204 0
-202 204 0
-203 204 0
-53 -60 -205 0
53 60 -205 0
53 -60 205 0
-53 60 205 0
-205 -67 -206 0
205 67 -206 0
205 -67 206 0
-205 67 206 0
-53 -60 207 0
53 -207 0
60 -207 0
-205 -67 208 0
205 -208 0
67 -208 0
207 208 -209 0
-207 209 0
-208 209 0
-74 -172 -210 0
74 172 -210 0
74 -172 210 0
-74 172 210 0
-210 -177 -211 0
210 177 -211 0
210 -177 211 0
-210 177 211 0
-74 -172 212 0
74 -212 0
172 -212 0
-210 -177 213 0
210 -213 0
177 -213 0
212 213 -214 0
-212 214 0
-213 214 0
-182 -187 -215 0
182 187 -215 0
182 -187 215 0
-182 187 215 0
-215 -192 -216 0
215 192 -216 0
215 -192 216 0
-215 192 216 0
-182 -187 217 0
182 -217 0
187 -217 0
-215 -192 218 0
215 -218 0
192 -218 0
217 218 -219 0
-217 219 0
-218 219 0
-197 -199 -220 0
197 199 -220 0
197 -199 220 0
-197 199 220 0
-220 -201 -221 0
220 201 -221 0
220 -201 221 0
-220 201 221 0
-197 -199 222 0
197 -222 0
199 -222 0
-220 -201 223 0
220 -223 0
201 -223 0
222 223 -224 0
-222 224 0
-223 224 0
-206 -211 -225 0
206 211 -225 0
206 -211 225 0
-206 211 225 0
-225 -216 -226 0
225 216 -226 0
225 -216 226 0
-225 216 226 0
-206 -211 227 0
206 -227 0
211 -227 0
-225 -216 228 0
225 -228 0
216 -228 0
227 228 -229 0
-227 229 0
-228 229 0
-221 -226 -230 0
221 226 -230 0
221 -226 230 0
-221 226 230 0
-221 -226 231 0
221 -231 0
226 -231 0
-40 -47 -232 0
40 47 -232 0
40 -47 232 0
-40 47 232 0
-232 -54 -233 0
232 54 -233 0
232 -54 233 0
-232 54 233 0
-40 -47 234 0
40 -234 0
47 -234 0
-232 -54 235 0
232 -235 0
54 -235 0
234 235 -236 0
-234 236 0
-235 236 0
-61 -68 -237 0
61 68 -237 0
61 -68 237 0
-61 68 237 0
-237 -75 -238 0
237 75 -238 0
237 -75 238 0
-237 75 238 0
-61 -68 239 0
61 -239 0
68 -239 0
-237 -75 240 0
237 -240 0
75 -240 0
239 240 -241 0
-239 241 0
-240 241 0
-204 -209 -242 0
204 209 -242 0
204 -209 242 0
-204 209 242 0
-242 -214 -243 0
242 214 -243 0
242 -214 243 0
-242 214 243 0
-204 -209 244 0
204 -244 0
209 -244 0
-242 -214 245 0
242 -245 0
214 -245 0
244 245 -246 0
-244 246 0
-245 246 0
-219 -224 -247 0
219 224 -247 0
219 -224 247 0
-219 224 247 0
-247 -229 -248 0
247 229 -248 0
247 -229 248 0
-247 229 248 0
-219 -224 249 0
219 -249 0
224 -249 0
-247 -229 250 0
247 -250 0
229 -250 0
249 250 -251 0
-249 251 0
-250 251 0
-231 -233 -252 0
231 233 -252 0
231 -233 252 0
-231 233 252 0
-252 -238 -253 0
252 238 -253 0
252 -238 253 0
-252 238 253 0
-231 -233 254 0
231 -254 0
233 -254 0
-252 -238 255 0
252 -255 0
238 -255 0
254 255 -256 0
-254 256 0
-255 256 0
-243 -248 -257 0
243 248 -257 0
243 -248 257 0
-243 248 257 0
-257 -253 -258 0
257 253 -258 0
257 -253 258 0
-257 253 258 0
-243 -248 259 0
243 -259 0
248 -259 0
-257 -253 260 0
257 -260 0
253 -260 0
259 260 -261 0
-259 261 0
-260 261 0
-48 -55 -262 0
48 55 -262 0
48 -55 262 0
-48 55 262 0
-262 -62 -263 0
262 62 -263 0
262 -62 263 0
-262 62 263 0
-48 -55 264 0
48 -264 0
55 -264 0
-262 -62 265 0
262 -265 0
62 -265 0
264 265 -266 0
-264 266 0
-265 266 0
-69 -76 -267 0
69 76 -267 0
69 -76 267 0
-69 76 267 0
-267 -236 -268 0
267 236 -268 0
267 -236 268 0
-267 236 268 0
-69 -76 269 0
69 -269 0
76 -269 0
-267 -236 270 0
267 -270 0
236 -270 0
269 270 -271 0
-269 271 0
-270 271 0
-241 -246 -272 0
241 246 -272 0
241 -246 272 0
-241 246 272 0
-272 -251 -273 0
272 251 -273 0
272 -251 273 0
-272 251 273 0
-241 -246 274 0
241 -274 0
246 -274 0
-272 -251 275 0
272 -275 0
251 -275 0
274 275 -276 0
-274 276 0
-275 276 0
-256 -261 -277 0
256 261 -277 0
256 -261 277 0
-256 261 277 0
-277 -263 -278 0
277 263 -278 0
277 -263 278 0
-277 263 278 0
-256 -261 279 0
256 -279 0
261 -279 0
-277 -263 280 0
277 -280 0
263 -280 0
279 280 -281 0
-279 281 0
-280 281 0
-268 -273 -282 0
268 273 -282 0
268 -273 282 0
-268 273 282 0
-282 -278 -283 0
282 278 -283 0
282 -278 283 0
-282 278 283 0
-268 -273 284 0
268 -284 0
273 -284 0
-282 -278 285 0
282 -285 0
278 -285 0
284 285 -286 0
-284 286 0
-285 286 0
-56 -63 -287 0
56 63 -287 0
56 -63 287 0
-56 63 287 0
-287 -70 -288 0
287 70 -288 0
287 -70 288 0
-287 70 288 0
-56 -63 289 0
56 -289 0
63 -289 0
-287 -70 290 0
287 -290 0
70 -290 0
289 290 -291 0
-289 291 0
-290 291 0
-77 -266 -292 0
77 266 -292 0
77 -266 292 0
-77 266 292 0
-292 -271 -293 0
292 271 -293 0
292 -271 293 0
-292 271 293 0
-77 -266 294 0
77 -294 0
266 -294 0
-292 -271 295 0
292 -295 0
271 -295 0
294 295 -296 0
-294 296 0
-295 296 0
-276 -281 -297 0
276 281 -297 0
276 -281 297 0
-276 281 297 0
-297 -286 -298 0
297 286 -298 0
297 -286 298 0
-297 286 298 0
-276 -281 299 0
276 -299 0
281 -299 0
-297 -286 300 0
297 -300 0
286 -300 0
299 300 -301 0
-299 301 0
-300 301 0
-288 -293 -302 0
288 293 -302 0
288 -293 302 0
-288 293 302 0
-302 -298 -303 0
302 298 -303 0
302 -298 303 0
-302 298 303 0
-288 -293 304 0
288 -304 0
293 -304 0
-302 -298 305 0
302 -305 0
298 -305 0
304 305 -306 0
-304 306 0
-305 306 0
-64 -71 -307 0
64 71 -307 0
64 -71 307 0
-64 71 307 0
-307 -78 -308 0
307 78 -308 0
307 -78 308 0
-307 78 308 0
-64 -71 309 0
64 -309 0
71 -309 0
-307 -78 310 0
307 -310 0
78 -310 0
309 310 -311 0
-309 311 0
-310 311 0
-291 -296 -312 0
291 296 -312 0
291 -296 312 0
-291 296 312 0
-312 -301 -313 0
312 301 -313 0
312 -301 313 0
-312 301 313 0
-291 -296 314 0
291 -314 0
296 -314 0
-312 -301 315 0
312 -315 0
301 -315 0
314 315 -316 0
-314 316 0
-315 316 0
-306 -308 -317 0
306 308 -317 0
306 -308 317 0
-306 308 317 0
-317 -313 -318 0
317 313 -318 0
317 -313 318 0
-317 313 318 0
-306 -308 319 0
306 -319 0
308 -319 0
-317 -313 320 0
317 -320 0
313 -320 0
319 320 -321 0
-319 321 0
-320 321 0
-72 -79 -322 0
72 79 -322 0
72 -79 322 0
-72 79 322 0
-322 -311 -323 0
322 311 -323 0
322 -311 323 0
-322 311 323 0
-72 -79 324 0
72 -324 0
79 -324 0
-322 -311 325 0
322 -325 0
311 -325 0
324 325 -326 0
-324 326 0
-325 326 0
-316 -321 -327 0
316 321 -327 0
316 -321 327 0
-316 321 327 0
-327 -323 -328 0
327 323 -328 0
327 -323 328 0
-327 323 328 0
-316 -321 329 0
316 -329 0
321 -329 0
-327 -323 330 0
327 -330 0
323 -330 0
329 330 -331 0
-329 331 0
-330 331 0
-80 -326 -332 0
80 326 -332 0
80 -326 332 0
-80 326 332 0
-332 -331 -333 0
332 331 -333 0
332 -331 333 0
-332 331 333 0
-80 -326 334 0
80 -334 0
326 -334 0
-332 -331 335 0
332 -335 0
331 -335 0
334 335 -336 0
-334 336 0
-335 336 0
17 0
-81 0
88 0
100 0
-117 0
-139 0
166 0
-198 0
-230 0
-258 0
-283 0
-303 0
-318 0
-328 0
-333 0
-336 0
2 3 4 5 6 7 8 0
10 11 12 13 14 15 16 0
